(declare-fun bvlambda_4_ () (_ BitVec 5))
(declare-fun a143 () (Array (_ BitVec 1) (_ BitVec 10)))
(assert
(let (($e1 (_ bv0 1)))
(let (($e13 (_ bv416 9)))
(let (($e18 (_ bv1018 10)))
(let (($e224 (concat $e13        $e1   )))
(let (($e225 (store a143 $e1 $e224)))
(let (($e331 (   extract      bvlambda_4_)))
(let (($e332 (store $e225 $e331        $e18 )))
(let (($e333 (select $e332 true       )))
(let (($e479 (select $e225 true        )))
(let (($e480 (   extract      $e479)))
(let (($e482      (= $e333        $e224 )         ))
                  (= (bvnot $e482) $e480)
                                                                                                                                                                                                                                                                                                                                                                                                                                                                                                                                                                                                                                                                                                                                                                                                                                                                                                                                                                                                                                                                                                                                                                                                                                                                                                                                                                                                                                                                                                                                                                                                                                                                                                                                                                                                                                                                                                                                                                                                                                                                                                                                                                                 ) ))                                                                                                                                                 )))                                                                                                         ))                                                                                                                                                                      )    )           ))
